
  32    1
  10

   0   0   3 2 3 7 
  10   5   5 13 9 8 6 5 
   5   4   3 13 9 4 
   3   8   3 14 11 10 
   3   8   3 14 11 10 
   2   7   3 14 11 10 
   7  10   3 14 12 11 
   2  10   3 20 14 12 
   2   9   2 20 10 
   3   8   1 12 
   6  10   5 25 20 19 17 16 
   6   5   3 17 16 15 
   7   9   2 16 15 
   5   6   4 25 22 21 18 
   2  10   3 25 19 18 
   5  10   3 22 21 18 
   6   7   3 22 21 18 
   2   9   2 24 23 
   9   4   2 24 21 
   8  10   2 29 23 
   7  10   4 31 30 29 27 
  10  10   2 27 26 
   3   6   3 31 30 27 
   3   6   3 31 29 27 
   1   8   2 28 26 
   9   7   2 30 29 
   6   6   1 28 
   4   9   1 32
   2  10   1 32
   1   9   1 32
   3  10   1 32
   0   0   0 
